src/asp/benchmarks/small3.lp
citta(gubbio).
citta(magione).
citta(todi).

richiesta(gubbio, strade, 439).
richiesta(gubbio, fiumi, 496).
richiesta(gubbio, scuole, 31).
richiesta(gubbio, parchi, 64).
richiesta(gubbio, energia, 2700).

richiesta(magione, strade, 229).
richiesta(magione, fiumi, 45).
richiesta(magione, scuole, 614).
richiesta(magione, parchi, 314).
richiesta(magione, energia, 430).

richiesta(todi, strade, 182).
richiesta(todi, fiumi, 1462).
richiesta(todi, scuole, 885).
richiesta(todi, parchi, 398).
richiesta(todi, energia, 1703).

